; generated by Theta
; https://github.com/ftsrg/theta/

(set-logic HORN)

; declarations
(declare-fun main_init_0 ((_ FloatingPoint 8 24) (_ FloatingPoint 8 24) (_ FloatingPoint 8 24) (_ FloatingPoint 8 24)) Bool)
(declare-fun main_final_2 ((_ FloatingPoint 8 24) (_ FloatingPoint 8 24) (_ FloatingPoint 8 24) (_ FloatingPoint 8 24)) Bool)
(declare-fun __loc_86_1 ((_ FloatingPoint 8 24) (_ FloatingPoint 8 24) (_ FloatingPoint 8 24) (_ FloatingPoint 8 24)) Bool)
(declare-fun main_error_3 ((_ FloatingPoint 8 24) (_ FloatingPoint 8 24) (_ FloatingPoint 8 24) (_ FloatingPoint 8 24)) Bool)

; facts, rules, queries
(assert (forall ((|main::a| (_ FloatingPoint 8 24)) (|main::b| (_ FloatingPoint 8 24)) (|call___VERIFIER_nondet_float_ret1| (_ FloatingPoint 8 24)) (|call___VERIFIER_nondet_float_ret2| (_ FloatingPoint 8 24))) (=> true (main_init_0 |main::a| |main::b| |call___VERIFIER_nondet_float_ret1| |call___VERIFIER_nondet_float_ret2|))))
(assert (forall ((|main::a| (_ FloatingPoint 8 24)) (|main::b| (_ FloatingPoint 8 24)) (|call___VERIFIER_nondet_float_ret1| (_ FloatingPoint 8 24)) (|call___VERIFIER_nondet_float_ret2| (_ FloatingPoint 8 24))) (=> (and (__loc_86_1 |main::a| |main::b| |call___VERIFIER_nondet_float_ret1| |call___VERIFIER_nondet_float_ret2|) (fp.eq |main::a| |main::b|)) (main_final_2 |main::a| |main::b| |call___VERIFIER_nondet_float_ret1| |call___VERIFIER_nondet_float_ret2|))))
(assert (forall ((|main::a_new| (_ FloatingPoint 8 24)) (|main::b_new| (_ FloatingPoint 8 24)) (|call___VERIFIER_nondet_float_ret1_new| (_ FloatingPoint 8 24)) (|call___VERIFIER_nondet_float_ret2_new| (_ FloatingPoint 8 24)) (|main::a| (_ FloatingPoint 8 24)) (|main::b| (_ FloatingPoint 8 24)) (|call___VERIFIER_nondet_float_ret1| (_ FloatingPoint 8 24)) (|call___VERIFIER_nondet_float_ret2| (_ FloatingPoint 8 24)) (__tmp_1 (_ FloatingPoint 8 24)) (__tmp_0 (_ FloatingPoint 8 24)) (__tmp_2 (_ FloatingPoint 8 24))) (=> (and (main_init_0 |main::a| |main::b| |call___VERIFIER_nondet_float_ret1| |call___VERIFIER_nondet_float_ret2|) (and (and (and (and (and (and (and (and (and true true) true) true) (= __tmp_1 |call___VERIFIER_nondet_float_ret1_new|)) (= __tmp_0 |call___VERIFIER_nondet_float_ret2_new|)) (or (or (or (or (not (= #b00000000000000000000000000000000 (ite (fp.eq __tmp_1 (fp #b0  #b01111111 #b00000000000000000000000)) #b00000000000000000000000000000001 #b00000000000000000000000000000000))) (not (= #b00000000000000000000000000000000 (ite (fp.eq ((_ to_fp 11 53) RNE __tmp_1) (fp #b0  #b01111111110 #b0000000000000000000000000000000000000000000000000000)) #b00000000000000000000000000000001 #b00000000000000000000000000000000)))) (not (= #b00000000000000000000000000000000 (ite (fp.eq __tmp_1 (fp #b0  #b10000000 #b00000000000000000000000)) #b00000000000000000000000000000001 #b00000000000000000000000000000000)))) (not (= #b00000000000000000000000000000000 (ite (fp.eq __tmp_1 (fp #b0  #b10000000 #b10000000000000000000000)) #b00000000000000000000000000000001 #b00000000000000000000000000000000)))) (not (= #b00000000000000000000000000000000 (ite (fp.eq ((_ to_fp 11 53) RNE __tmp_1) (fp #b0  #b01111111011 #b1001100110011001100110011001100110011001100110011010)) #b00000000000000000000000000000001 #b00000000000000000000000000000000))))) (= |main::b_new| __tmp_1)) (= __tmp_2 (fp.div RNE __tmp_1 ((_ to_fp 8 24) RNE #b00000000000000000000000000000010)))) (= |main::a_new| (fp.mul RNE __tmp_2 ((_ to_fp 8 24) RNE #b00000000000000000000000000000010))))) (__loc_86_1 |main::a_new| |main::b_new| |call___VERIFIER_nondet_float_ret1_new| |call___VERIFIER_nondet_float_ret2_new|))))
(assert (forall ((|main::a| (_ FloatingPoint 8 24)) (|main::b| (_ FloatingPoint 8 24)) (|call___VERIFIER_nondet_float_ret1| (_ FloatingPoint 8 24)) (|call___VERIFIER_nondet_float_ret2| (_ FloatingPoint 8 24))) (=> (and (__loc_86_1 |main::a| |main::b| |call___VERIFIER_nondet_float_ret1| |call___VERIFIER_nondet_float_ret2|) (not (fp.eq |main::a| |main::b|))) (main_error_3 |main::a| |main::b| |call___VERIFIER_nondet_float_ret1| |call___VERIFIER_nondet_float_ret2|))))
(assert (forall ((|main::a| (_ FloatingPoint 8 24)) (|main::b| (_ FloatingPoint 8 24)) (|call___VERIFIER_nondet_float_ret1| (_ FloatingPoint 8 24)) (|call___VERIFIER_nondet_float_ret2| (_ FloatingPoint 8 24))) (=> (main_error_3 |main::a| |main::b| |call___VERIFIER_nondet_float_ret1| |call___VERIFIER_nondet_float_ret2|) false)))

(check-sat)
(exit)